WARNING: for repeatability, setting FPU to use double precision
============================[ Problem Statistics ]=============================
|                                                                             |
|  Number of variables:           100                                         |
|  Number of clauses:             449                                         |
|  Parse time:                   0.00 s                                       |
|  Eliminated clauses:           0.00 Mb                                      |
|  Simplification time:          0.00 s                                       |
|                                                                             |
============================[ Search Statistics ]==============================
| Conflicts |          ORIGINAL         |          LEARNT          | Progress |
|           |    Vars  Clauses Literals |    Limit  Clauses Lit/Cl |          |
===============================================================================
|       100 |      98      447     1351 |      163      100      8 |  0.010 % |
|       250 |      97      429     1290 |      180       64      6 |  1.010 % |
===============================================================================
restarts              : 3
conflicts             : 287            (82424 /sec)
decisions             : 374            (0.00 % random) (107410 /sec)
propagations          : 6192           (1778288 /sec)
conflict literals     : 1859           (15.65 % deleted)
Memory used           : 13.00 MB
CPU time              : 0.003482 s

SATISFIABLE
